// FEASIBLE
// COST 3255
nNurses=3255;
minHours=2;
maxPresence=12;
maxHours=10;
maxConsec=6;
hoursDay=24;
demand=[1084 1087 1083 1084 1080 1078 1081 1089 1075 1081 1071 1080 1083 1090 1068 1093 1073 1081 1075 1086 1070 1085 1077 1077];
